90 117034
5 67 11 77 71 79 22 69 23 34 25 64 20 17 74 87 12 70 30 76 21 10 60 78 57 65 36 19 55 9 62 81 14 89 37 83 47 49 15 41 35 1 73 6 68 13 51 7 16 31 39 40 72 66 90 28 3 80 38 50 53 82 32 44 63 85 43 52 56 48 2 29 33 4 61 54 58 88 59 86 42 24 18 84 46 26 45 27 75 8 
